\ENCODING=ISO-8859-1
\Problem name: 

Maximize
 obj: 25083460.425221 x0 + 632407.104172425 x1 + 1227673.91111306 x2
      - 755933.762253687 x3 + 56756.2856482043 x4 + 792146.071132031 x5
      + 142153.539395161 x6 + 632373.819998197 x7 - 141988.85216809 x8
      + 708441.425847049 x9 + 7085407.49384237 x10 - 708275.72436233 x11
      - 987975.683653194 x12 + 88687572.5132717 x13 + 990605.187472009 x14
      - 493295.108482009 x15 + 56766.1326706683 x16 + 463478.983150667 x17
      - 62593.7175095302 x18 + 588286.186746619 x19 + 64796626.3301589 x20
      + 503694.168942357 x21 + 56736.9141792766 x22 - 702386.500763261 x23
      - 67336.0789074112 x24 + 632634.843325202 x25 + 826429.143758397 x26
      + 751494.082775611 x27 + 61295.2336707773 x28 + 3254721.64783904 x29
      + 71774.4920710446 x30 + 634585.757518209 x31 - 71618.7798912071 x32
      + 4198601.50441522 x33 + 57112.4153930925 x34 - 638350.803501314 x35
      + 29015336.5598969 x36 + 714773.792106795 x37 + 294742.589669474 x38
      - 893607.015857034 x39 + 125556.621764978 x40 + 1396664.16771216 x41
      - 197955.611146975 x42 + 754853.856518562 x43 - 110612.668864952 x44
      - 283725.049902425 x45 + 124309.156280514 x46 + 79059148.0704956 x47
      + 60532.5685555602 x48 + 715253.257319581 x49 - 160665.177609227 x50
      - 74962863.6936868 x51 + 197372.963135647 x52 + 534660.819371494 x53
      - 978417.258854789 x54 + 714769.483270746 x55 + 663766.266274925 x56
      - 1639204.55061133 x57 + 4412034.58262983 x58 + 1627189.42541684 x59
      + 279950.013047153 x60 + 653283.555209168 x61 + 23327046.4907143 x62
      - 229624.413004372 x63 + 95089.3447425459 x64 + 437167.233063887 x65
      + 1123883.74321241 x66 + 51794238.3917463 x67 + 2035761.67412926 x68
      + 528873.280156609 x69 + 125589.99446661 x70 - 494525.003880953 x71
Subject To
 c0:  x0 + x1 + x2 + x3 + x4 + x5  = 1
 c1:  x6 + x7 + x8 + x9 + x10 + x11  = 1
 c2:  x12 + x13 + x14 + x15 + x16 + x17  = 1
 c3:  x18 + x19 + x20 + x21 + x22 + x23  = 1
 c4:  x24 + x25 + x26 + x27 + x28 + x29  = 1
 c5:  x30 + x31 + x32 + x33 + x34 + x35  = 1
 c6:  x36 + x37 + x38 + x39 + x40 + x41  = 1
 c7:  x42 + x43 + x44 + x45 + x46 + x47  = 1
 c8:  x48 + x49 + x50 + x51 + x52 + x53  = 1
 c9:  x54 + x55 + x56 + x57 + x58 + x59  = 1
 c10: x60 + x61 + x62 + x63 + x64 + x65  = 1
 c11: x66 + x67 + x68 + x69 + x70 + x71  = 1
 c12: x0 + x6 + x12 + x18 + x24 + x30  = 1
 c13: x1 + x7 + x13 + x19 + x25 + x31  = 1
 c14: x2 + x8 + x14 + x20 + x26 + x32  = 1
 c15: x3 + x9 + x15 + x21 + x27 + x33  = 1
 c16: x4 + x10 + x16 + x22 + x28 + x34  = 1
 c17: x5 + x11 + x17 + x23 + x29 + x35  = 1
 c18: x36 + x42 + x48 + x54 + x60 + x66  = 1
 c19: x37 + x43 + x49 + x55 + x61 + x67  = 1
 c20: x38 + x44 + x50 + x56 + x62 + x68  = 1
 c21: x39 + x45 + x51 + x57 + x63 + x69  = 1
 c22: x40 + x46 + x52 + x58 + x64 + x70  = 1
 c23: x41 + x47 + x53 + x59 + x65 + x71  = 1
Bounds
 0 <= x0 <= 1
 0 <= x1 <= 1
 0 <= x2 <= 1
 0 <= x3 <= 1
 0 <= x4 <= 1
 0 <= x5 <= 1
 0 <= x6 <= 1
 0 <= x7 <= 1
 0 <= x8 <= 1
 0 <= x9 <= 1
 0 <= x10 <= 1
 0 <= x11 <= 1
 0 <= x12 <= 1
 0 <= x13 <= 1
 0 <= x14 <= 1
 0 <= x15 <= 1
 0 <= x16 <= 1
 0 <= x17 <= 1
 0 <= x18 <= 1
 0 <= x19 <= 1
 0 <= x20 <= 1
 0 <= x21 <= 1
 0 <= x22 <= 1
 0 <= x23 <= 1
 0 <= x24 <= 1
 0 <= x25 <= 1
 0 <= x26 <= 1
 0 <= x27 <= 1
 0 <= x28 <= 1
 0 <= x29 <= 1
 0 <= x30 <= 1
 0 <= x31 <= 1
 0 <= x32 <= 1
 0 <= x33 <= 1
 0 <= x34 <= 1
 0 <= x35 <= 1
 0 <= x36 <= 1
 0 <= x37 <= 1
 0 <= x38 <= 1
 0 <= x39 <= 1
 0 <= x40 <= 1
 0 <= x41 <= 1
 0 <= x42 <= 1
 0 <= x43 <= 1
 0 <= x44 <= 1
 0 <= x45 <= 1
 0 <= x46 <= 1
 0 <= x47 <= 1
 0 <= x48 <= 1
 0 <= x49 <= 1
 0 <= x50 <= 1
 0 <= x51 <= 1
 0 <= x52 <= 1
 0 <= x53 <= 1
 0 <= x54 <= 1
 0 <= x55 <= 1
 0 <= x56 <= 1
 0 <= x57 <= 1
 0 <= x58 <= 1
 0 <= x59 <= 1
 0 <= x60 <= 1
 0 <= x61 <= 1
 0 <= x62 <= 1
 0 <= x63 <= 1
 0 <= x64 <= 1
 0 <= x65 <= 1
 0 <= x66 <= 1
 0 <= x67 <= 1
 0 <= x68 <= 1
 0 <= x69 <= 1
 0 <= x70 <= 1
 0 <= x71 <= 1
End
